
Gurobi 11.0.1 (win64) logging started Wed May 15 12:34:06 2024

Set parameter LogFile to value "output/solver_log50.txt"
Gurobi Optimizer version 11.0.1 build v11.0.1rc0 (win64 - Windows 11.0 (22631.2))

CPU model: 11th Gen Intel(R) Core(TM) i7-1165G7 @ 2.80GHz, instruction set [SSE2|AVX|AVX2|AVX512]
Thread count: 4 physical cores, 8 logical processors, using up to 8 threads

Optimize a model with 2765 rows, 682 columns and 51111 nonzeros
Model fingerprint: 0x32405bbf
Variable types: 248 continuous, 434 integer (434 binary)
Coefficient statistics:
  Matrix range     [4e-01, 1e+05]
  Objective range  [1e+00, 1e+02]
  Bounds range     [1e+00, 1e+00]
  RHS range        [1e-02, 1e+05]

User MIP start produced solution with objective 77454.2 (0.00s)
User MIP start produced solution with objective 77454.2 (0.02s)
Loaded user MIP start with objective 77454.2

Presolve removed 312 rows and 256 columns
Presolve time: 0.08s
Presolved: 2453 rows, 426 columns, 47734 nonzeros
Variable types: 232 continuous, 194 integer (191 binary)

Root relaxation: objective 7.751312e+04, 618 iterations, 0.06 seconds (0.08 work units)

    Nodes    |    Current Node    |     Objective Bounds      |     Work
 Expl Unexpl |  Obj  Depth IntInf | Incumbent    BestBd   Gap | It/Node Time

     0     0 77513.1250    0   12 77454.1880 77513.1250  0.08%     -    0s
     0     0 77512.9959    0   12 77454.1880 77512.9959  0.08%     -    0s
     0     0 77512.9959    0    5 77454.1880 77512.9959  0.08%     -    0s
     0     0 77512.9959    0    5 77454.1880 77512.9959  0.08%     -    0s

Explored 1 nodes (1519 simplex iterations) in 0.86 seconds (0.91 work units)
Thread count was 8 (of 8 available processors)

Solution count 2: 77454.2 77454.2 

Optimal solution found (tolerance 1.00e-04)
Best objective 7.745418804242e+04, best bound 7.746170762637e+04, gap 0.0097%
